StudentsNr = 15;
InstructorsNr = 10;
DaysNr = 2;
SlotsPerDay = 10;
RoomNr = 2;
ProgrammNr = 2;
DegreeNr = 1;
RolesNr = 2;
CoursesNr = 3;
InstructorsProgramm = [{1}, {1}, {1}, {2}, {2}, {1}, {2}, {1}, {1, 2}, {1}];
InstructorsRoles = [{2}, {}, {1, 2}, {1, 2}, {1, 2}, {}, {1}, {}, {}, {2}];
InstructorsAvailability = [|1, 1, 0, 0, 1, 0, 1, 0, 1, 0, |0, 1, 1, 1, 1, 1, 1, 0, 0, 1, |0, 1, 1, 0, 1, 0, 0, 0, 1, 1, |1, 1, 1, 1, 1, 1, 1, 1, 1, 0, |0, 0, 1, 1, 0, 1, 1, 1, 1, 1, |1, 1, 1, 1, 1, 0, 1, 0, 0, 0, |1, 1, 0, 1, 1, 1, 1, 0, 0, 0, |1, 1, 1, 1, 1, 0, 0, 1, 1, 1, |0, 0, 1, 1, 1, 0, 1, 1, 1, 1, |0, 1, 1, 1, 1, 1, 0, 1, 1, 1|];
StudentsProgramm = [1, 1, 2, 1, 2, 1, 2, 1, 2, 1, 1, 2, 2, 1, 2];
StudentsDegree = [1, 1, 1, 1, 1, 1, 1, 1, 1, 1, 1, 1, 1, 1, 1];
StudentsSupervisorId = [9, 9, 5, 10, 5, 8, 9, 8, 4, 3, 6, 7, 4, 9, 4];
StudentsCourseIds = [{}, {}, {}, {}, {}, {}, {}, {}, {}, {}, {}, {}, {}, {}, {}];
StudentsAvailability = [|1, 1, 1, 1, 1, 1, 1, 1, 1, 1, |0, 0, 1, 1, 1, 1, 1, 1, 1, 1, |0, 1, 1, 1, 1, 1, 1, 1, 1, 1, |0, 1, 1, 0, 1, 1, 0, 1, 1, 0, |1, 0, 1, 1, 1, 1, 1, 1, 1, 1, |1, 1, 1, 1, 1, 1, 1, 1, 1, 1, |0, 1, 1, 1, 1, 1, 1, 1, 1, 1, |0, 0, 0, 0, 1, 1, 1, 1, 1, 1, |1, 1, 1, 1, 1, 1, 1, 1, 1, 1, |1, 1, 1, 1, 0, 1, 1, 1, 1, 1, |0, 0, 0, 1, 1, 1, 1, 1, 1, 1, |1, 1, 1, 1, 1, 1, 1, 1, 1, 0, |0, 0, 1, 1, 1, 1, 1, 0, 0, 1, |1, 1, 1, 1, 1, 1, 0, 0, 1, 1, |0, 0, 1, 1, 1, 1, 1, 1, 1, 1|];
CoursesInstructorIds = [{1, 3, 4, 8, 10}, {2, 3, 4, 6, 7, 10}, {1, 4, 6, 7, 9, 10}];
